3 16
28 188
34 116
17 171
52 26
72 33
35 110
16 30
61 63
17 99
24 31
72 5
26 14
32 47
48 23
14 149
12 79
8 59
66 37
84 27
51 36
47 35
8 11
13 173
29 43
57 59
14 132
35 144
62 8
33 10
66 56
18 7
59 18
62 28
44 104
26 70
45 5
86 18
5 62
49 96
2 115
10 174
43 89
17 46
79 38
22 51
37 142
36 43
43 63
40 94
